NAME : rnd49_20.tsp
TYPE : TSP
DIMENSION : 20
EDGE_WEIGHT_TYPE : EUC_2D
NODE_COORD_SECTION
0 710 821
1 78 685
2 94 589
3 498 914
4 898 580
5 572 319
6 167 873
7 546 453
8 480 442
9 237 667
10 523 162
11 78 15
12 223 357
13 552 578
14 61 551
15 219 84
16 397 355
17 784 705
18 757 456
19 946 934
